unsat
((set-logic NIA)
(declare-fun z!1 () Int)
(declare-fun y!2 () Int)
(declare-fun n!0 () Int)
(declare-fun x!3 () Int)
(proof
(let ((?x1175 (* z!1 z!1)))
 (let ((?x1088 (* (- 6) z!1)))
 (let ((?x441 (* (- 12) y!2)))
 (let ((?x285 (* z00 z00)))
 (let ((?x286 (* (- 1) ?x285)))
 (let ((?x43 (* 12 y00)))
 (let ((?x49 (* 6 z00)))
 (let ((?x953 (+ ?x49 ?x43 ?x286 ?x441 ?x1088 ?x1175)))
 (let (($x740 (<= ?x953 0)))
 (let (($x820 (= ?x953 0)))
 (let ((?x1209 (* y!2 y!2)))
 (let ((?x958 (* y!2 z!1)))
 (let ((?x337 (* 2 ?x958)))
 (let ((?x911 (* (- 1) (* z!1 n!0 n!0 n!0))))
 (let ((?x753 (* (- 1) (* y!2 n!0 n!0 n!0))))
 (let ((?x1074 (* (- 1) z!1)))
 (let ((?x902 (* (- 3) (* y!2 n!0 n!0))))
 (let ((?x489 (* (- 3) (* z!1 n!0 n!0))))
 (let ((?x1072 (* (- 1) y!2)))
 (let ((?x1205 (* (- 3) (* z!1 n!0))))
 (let ((?x1096 (* (- 3) (* y!2 n!0))))
 (let ((?x1042 (* (+ ?x1096 ?x1205 ?x1072 ?x489 ?x902 ?x1074 ?x753 ?x911 ?x337 ?x1175 ?x1209) ?x953)))
 (let (($x1040 (= ?x1042 0)))
 (let (($x1061 (not $x1040)))
 (let ((?x670 (* z00 z00 y00 y00)))
 (let ((?x1166 (+ (* 24 (* z00 y!2)) (* (- 108) (* y!2 x!3)) (* 108 (* x00 y!2)) (* 216 (* y00 x!3)) (* (- 216) (* y00 x00)) (* 216 (* x00 x!3)) (* (- 24) (* z00 y00)) (* (- 36) (* z00 x00)) (* (- 96) (* y00 y00)) (* (- 1) (* z00 z00 y!2 y!2)) (* 36 (* z00 x!3)) (* 120 (* y00 y!2)) (* 12 (* z00 y00 y00)) (* 10 (* z00 z00 y00)) (* 12 (* y00 y!2 y!2)) ?x670 (* 4 (* y!2 y!2 y!2)) (* (- 18) (* z00 y00 y!2)) (* (- 108) (* x!3 x!3)) (* (- 18) (* z00 z00 x!3)) (* 18 (* z00 z00 x00)) (* (- 16) (* y00 y00 y00)) (* (- 36) (* z00 y00 x!3)) (* 36 (* z00 y00 x00)) (* 6 (* z00 y!2 y!2)) (* (- 1) (* z00 z00 z00 y00)) (* (- 2) (* z00 z00 z00 x00)) (* (- 10) (* z00 z00 y!2)) (* (- 24) ?x1209) (* (- 108) (* x00 x00)) (* z00 z00 z00 y!2) (* 2 (* z00 z00 z00 x!3)))))
 (let ((?x1086 (* (- 108) x!3)))
 (let ((?x1059 (* 12 ?x958)))
 (let ((?x946 (* y00 z!1)))
 (let ((?x799 (* (- 12) ?x946)))
 (let ((?x737 (* z00 y00 y!2)))
 (let ((?x1032 (* (- 18) (* x00 z!1))))
 (let ((?x602 (* z00 y00 y00)))
 (let ((?x487 (* (- 72) y!2)))
 (let ((?x493 (* y00 y00)))
 (let ((?x694 (* 36 ?x493)))
 (let ((?x426 (* z00 y00)))
 (let ((?x542 (* 6 ?x426)))
 (let ((?x1193 (* 18 (* z!1 x!3))))
 (let ((?x74 (* 108 x00)))
 (let ((?x67 (* 72 y00)))
 (let ((?x1276 (+ ?x67 ?x74 (* (- 6) (* z00 y!2)) (* 18 (* y!2 x!3)) (* (- 18) (* x00 y!2)) (* (- 18) (* y00 x!3)) ?x1193 (* 18 (* y00 x00)) (* 2 (* y00 y00 z!1)) ?x542 ?x694 ?x487 (* (- 36) (* y00 y!2)) ?x602 (* (- 3) (* z00 z00 y00)) ?x1032 (* (- 3) (* z00 x00 z!1)) ?x737 (* 3 (* z00 z00 x!3)) (* (- 1) (* y!2 y!2 z!1)) (* (- 3) (* z00 z00 x00)) ?x799 ?x1059 (* (- 1) (* y00 y!2 z!1)) ?x1086 (* 3 (* z00 z!1 x!3)) (* (- 2) (* z00 y!2 y!2)) (* 3 (* z00 z00 y!2)))))
 (let ((?x1136 (* z00 z00 y!2)))
 (let ((?x1138 (* 24 ?x493)))
 (let ((?x701 (* (- 6) ?x426)))
 (let ((?x1168 (+ ?x67 ?x74 (* 6 (* z00 y!2)) ?x1193 ?x701 (* (- 18) (* z00 x00)) ?x1138 ?x487 (* 18 (* z00 x!3)) (* (- 12) (* y00 y!2)) (* (- 1) (* z00 z00 y00)) ?x1032 (* z00 y00 z!1) ?x799 ?x1059 ?x1086 (* (- 1) (* z00 y!2 z!1)) ?x1136 (* (- 12) ?x1209))))
 (let ((?x1126 (* (- 6) ?x285)))
 (let ((?x55 (* z00 z00 z00)))
 (let ((?x603 (+ ?x67 ?x55 ?x74 ?x1126 (* (- 18) ?x426) ?x487 (* (- 1) (* z00 z00 z!1)) (* 12 ?x946) (* 6 ?x958) ?x1086 (* 6 (* z00 z!1)))))
 (let (($x1041 (and (= (+ z00 (* (- 6) n00) ?x1074 (* 6 n!0)) 0) $x820 (= ?x603 0) (= ?x1168 0) (= ?x1276 0) (= ?x1166 0) $x1061)))
 (let ((?x732 (* (+ ?x1072 ?x1074 ?x1175 ?x337 ?x902 ?x1209 ?x911 ?x753 ?x1096 ?x489 ?x1205) (+ ?x441 ?x1088 ?x49 ?x43 ?x1175 ?x286))))
 (let ((?x1210 (* x00 x00)))
 (let ((?x1211 (* 108 ?x1210)))
 (let ((?x1107 (* z00 z00 z00 x00)))
 (let ((?x1108 (* 2 ?x1107)))
 (let ((?x1104 (* z00 z00 z00 y00)))
 (let ((?x1001 (* z00 y00 x00)))
 (let ((?x1014 (* (- 36) ?x1001)))
 (let ((?x898 (* y00 y00 y00)))
 (let ((?x899 (* 16 ?x898)))
 (let ((?x813 (* z00 z00 x00)))
 (let ((?x1064 (* (- 18) ?x813)))
 (let ((?x685 (* (- 1) ?x670)))
 (let ((?x627 (* z00 z00 y00)))
 (let ((?x1165 (* (- 10) ?x627)))
 (let ((?x637 (* (- 12) ?x602)))
 (let ((?x964 (* 96 ?x493)))
 (let ((?x463 (* z00 x00)))
 (let ((?x381 (* 36 ?x463)))
 (let ((?x791 (* 24 ?x426)))
 (let ((?x373 (* y00 x00)))
 (let ((?x364 (* 216 ?x373)))
 (let ((?x727 (+ (* 10 (* y!2 z00 z00)) (* y!2 y!2 z00 z00) (* (- 1) (* y!2 z00 z00 z00)) ?x364 (* (- 2) (* x!3 z00 z00 z00)) (* 108 (* x!3 y!2)) ?x791 ?x381 (* 24 ?x1209) ?x964 (* (- 120) (* y!2 y00)) (* 18 (* x!3 z00 z00)) (* (- 24) (* y!2 z00)) ?x637 ?x1165 (* (- 36) (* x!3 z00)) (* 18 (* y!2 z00 y00)) ?x685 (* 108 (* x!3 x!3)) (* (- 4) (* y!2 y!2 y!2)) (* (- 6) (* y!2 y!2 z00)) (* (- 108) (* y!2 x00)) ?x1064 (* (- 216) (* x!3 y00)) ?x899 (* (- 12) (* y!2 y!2 y00)) ?x1014 (* (- 216) (* x!3 x00)) ?x1104 ?x1108 (* 36 (* x!3 z00 y00)) ?x1211)))
 (let ((?x814 (* 3 ?x813)))
 (let ((?x876 (* 3 ?x627)))
 (let ((?x609 (* (- 1) ?x602)))
 (let ((?x595 (* 18 (* z!1 x00))))
 (let ((?x796 (* (- 36) ?x493)))
 (let ((?x789 (* z!1 y00)))
 (let ((?x610 (* 12 ?x789)))
 (let ((?x623 (* (- 18) (* x!3 z!1))))
 (let ((?x374 (* (- 18) ?x373)))
 (let ((?x485 (* (- 12) ?x958)))
 (let ((?x787 (* y!2 y!2 z!1)))
 (let ((?x505 (* (- 108) x00)))
 (let ((?x448 (* (- 72) y00)))
 (let ((?x282 (* 72 y!2)))
 (let ((?x592 (* 108 x!3)))
 (let ((?x319 (+ ?x592 ?x282 ?x448 ?x505 (* (- 3) (* y!2 z00 z00)) ?x787 ?x485 ?x374 (* (- 18) (* x!3 y!2)) ?x623 ?x610 ?x701 ?x796 ?x595 (* 36 (* y!2 y00)) (* (- 3) (* x!3 z00 z00)) (* 6 (* y!2 z00)) ?x609 ?x876 (* 3 (* z!1 z00 x00)) (* (- 1) (* y!2 z00 y00)) (* (- 3) (* x!3 z!1 z00)) (* 2 (* y!2 y!2 z00)) (* 18 (* y!2 x00)) ?x814 (* 18 (* x!3 y00)) (* y!2 z!1 y00) (* (- 2) (* z!1 y00 y00)))))
 (let ((?x522 (* (- 24) ?x493)))
 (let ((?x464 (* 18 ?x463)))
 (let ((?x593 (+ ?x592 ?x282 ?x448 ?x505 (* y!2 z!1 z00) (* (- 1) (* y!2 z00 z00)) (* (- 1) (* z!1 z00 y00)) ?x485 ?x623 ?x610 ?x542 ?x464 (* 12 ?x1209) ?x522 ?x595 (* 12 (* y!2 y00)) (* (- 6) (* y!2 z00)) ?x627 (* (- 18) (* x!3 z00)))))
 (let ((?x427 (* 18 ?x426)))
 (let ((?x389 (* 6 ?x285)))
 (let ((?x378 (* (- 1) ?x55)))
 (let ((?x749 (+ ?x592 ?x282 ?x448 ?x378 ?x505 (* z!1 z00 z00) ?x389 (* (- 6) ?x958) (* (- 12) ?x789) ?x427 (* (- 6) (* z!1 z00)))))
 (let ((?x356 (* (- 12) y00)))
 (let ((?x355 (* (- 6) z00)))
 (let (($x236 (= (+ (* 12 y!2) (* 6 z!1) ?x355 ?x356 (* (- 1) ?x1175) ?x285) 0)))
 (let (($x315 (and (= (+ z!1 (* (- 6) n!0) (* (- 1) z00) (* 6 n00)) 0) $x236 (= ?x749 0) (= ?x593 0) (= ?x319 0) (= ?x727 0) (not (= ?x732 0)))))
 (let (($x557 (exists ((x Int) (y Int) (z Int) (n Int) )(! (let ((?x285 (* z00 z00)))
 (let ((?x286 (* (- 1) ?x285)))
 (let ((?x50 (* z z)))
 (let ((?x43 (* 12 y00)))
 (let ((?x49 (* 6 z00)))
 (let ((?x331 (* (- 6) z)))
 (let ((?x309 (* (- 12) y)))
 (let ((?x347 (+ ?x309 ?x331 ?x49 ?x43 ?x50 ?x286)))
 (let ((?x467 (* y y)))
 (let ((?x369 (* y z)))
 (let ((?x1083 (* 2 ?x369)))
 (let ((?x237 (* (- 1) z)))
 (let ((?x1030 (* (- 1) y)))
 (let ((?x914 (+ ?x1030 ?x237 ?x50 ?x1083 (* (- 3) (* y n n)) ?x467 (* (- 1) (* z n n n)) (* (- 1) (* y n n n)) (* (- 3) (* y n)) (* (- 3) (* z n n)) (* (- 3) (* z n)))))
 (let ((?x1210 (* x00 x00)))
 (let ((?x1211 (* 108 ?x1210)))
 (let ((?x1107 (* z00 z00 z00 x00)))
 (let ((?x1108 (* 2 ?x1107)))
 (let ((?x1104 (* z00 z00 z00 y00)))
 (let ((?x1001 (* z00 y00 x00)))
 (let ((?x1014 (* (- 36) ?x1001)))
 (let ((?x898 (* y00 y00 y00)))
 (let ((?x899 (* 16 ?x898)))
 (let ((?x813 (* z00 z00 x00)))
 (let ((?x1064 (* (- 18) ?x813)))
 (let ((?x769 (* (- 4) (* y y y))))
 (let ((?x717 (* 108 (* x x))))
 (let ((?x670 (* z00 z00 y00 y00)))
 (let ((?x685 (* (- 1) ?x670)))
 (let ((?x627 (* z00 z00 y00)))
 (let ((?x1165 (* (- 10) ?x627)))
 (let ((?x602 (* z00 y00 y00)))
 (let ((?x637 (* (- 12) ?x602)))
 (let ((?x493 (* y00 y00)))
 (let ((?x964 (* 96 ?x493)))
 (let ((?x712 (* 24 ?x467)))
 (let ((?x463 (* z00 x00)))
 (let ((?x381 (* 36 ?x463)))
 (let ((?x426 (* z00 y00)))
 (let ((?x791 (* 24 ?x426)))
 (let ((?x373 (* y00 x00)))
 (let ((?x364 (* 216 ?x373)))
 (let ((?x201 (* y y z00 z00)))
 (let ((?x1231 (+ (* 10 (* y z00 z00)) ?x201 (* (- 1) (* y z00 z00 z00)) ?x364 (* (- 2) (* x z00 z00 z00)) (* 108 (* x y)) ?x791 ?x381 ?x712 ?x964 (* (- 120) (* y y00)) (* 18 (* x z00 z00)) (* (- 24) (* y z00)) ?x637 ?x1165 (* (- 36) (* x z00)) (* 18 (* y z00 y00)) ?x685 ?x717 ?x769 (* (- 6) (* y y z00)) (* (- 108) (* y x00)) ?x1064 (* (- 216) (* x y00)) ?x899 (* (- 12) (* y y y00)) ?x1014 (* (- 216) (* x x00)) ?x1104 ?x1108 (* 36 (* x z00 y00)) ?x1211)))
 (let (($x1236 (= ?x1231 0)))
 (let ((?x814 (* 3 ?x813)))
 (let ((?x876 (* 3 ?x627)))
 (let ((?x609 (* (- 1) ?x602)))
 (let ((?x539 (* 18 (* z x00))))
 (let ((?x796 (* (- 36) ?x493)))
 (let ((?x701 (* (- 6) ?x426)))
 (let ((?x400 (* z y00)))
 (let ((?x401 (* 12 ?x400)))
 (let ((?x434 (* (- 18) (* x z))))
 (let ((?x374 (* (- 18) ?x373)))
 (let ((?x393 (* (- 12) ?x369)))
 (let ((?x135 (* y y z)))
 (let ((?x505 (* (- 108) x00)))
 (let ((?x448 (* (- 72) y00)))
 (let ((?x71 (* 72 y)))
 (let ((?x64 (* 108 x)))
 (let ((?x932 (+ ?x64 ?x71 ?x448 ?x505 (* (- 3) (* y z00 z00)) ?x135 ?x393 ?x374 (* (- 18) (* x y)) ?x434 ?x401 ?x701 ?x796 ?x539 (* 36 (* y y00)) (* (- 3) (* x z00 z00)) (* 6 (* y z00)) ?x609 ?x876 (* 3 (* z z00 x00)) (* (- 1) (* y z00 y00)) (* (- 3) (* x z z00)) (* 2 (* y y z00)) (* 18 (* y x00)) ?x814 (* 18 (* x y00)) (* y z y00) (* (- 2) (* z y00 y00)))))
 (let (($x939 (= ?x932 0)))
 (let ((?x522 (* (- 24) ?x493)))
 (let ((?x470 (* 12 ?x467)))
 (let ((?x464 (* 18 ?x463)))
 (let ((?x542 (* 6 ?x426)))
 (let ((?x103 (* y z z00)))
 (let ((?x681 (+ ?x64 ?x71 ?x448 ?x505 ?x103 (* (- 1) (* y z00 z00)) (* (- 1) (* z z00 y00)) ?x393 ?x434 ?x401 ?x542 ?x464 ?x470 ?x522 ?x539 (* 12 (* y y00)) (* (- 6) (* y z00)) ?x627 (* (- 18) (* x z00)))))
 (let (($x686 (= ?x681 0)))
 (let ((?x427 (* 18 ?x426)))
 (let ((?x389 (* 6 ?x285)))
 (let ((?x76 (* z z00 z00)))
 (let ((?x55 (* z00 z00 z00)))
 (let ((?x378 (* (- 1) ?x55)))
 (let ((?x521 (+ ?x64 ?x71 ?x448 ?x378 ?x505 ?x76 ?x389 (* (- 6) ?x369) (* (- 12) ?x400) ?x427 (* (- 6) (* z z00)))))
 (let (($x526 (= ?x521 0)))
 (let ((?x357 (* (- 1) ?x50)))
 (let ((?x356 (* (- 12) y00)))
 (let ((?x355 (* (- 6) z00)))
 (let ((?x46 (* 6 z)))
 (let ((?x45 (* 12 y)))
 (let (($x359 (= (+ ?x45 ?x46 ?x355 ?x356 ?x357 ?x285) 0)))
 (let (($x277 (= (+ z (* (- 6) n) (* (- 1) z00) (* 6 n00)) 0)))
 (and $x277 $x359 $x526 $x686 $x939 $x1236 (not (= (* ?x914 ?x347) 0))))))))))))))))))))))))))))))))))))))))))))))))))))))))))))))))))))))))))))))))))))))) :qid k!38))
 ))
 (let (($x300 (exists ((x Int) (y Int) (z Int) (n Int) )(! (let ((?x49 (* 6 z00)))
 (let ((?x309 (* (- 12) y)))
 (let ((?x43 (* 12 y00)))
 (let ((?x285 (* z00 z00)))
 (let ((?x286 (* (- 1) ?x285)))
 (let ((?x1082 (+ (- 36) ?x286 ?x43 ?x309 (* (- 18) z) ?x49 (* (+ 6 z) (+ 6 z)))))
 (let ((?x215 (+ y z)))
 (let ((?x225 (* ?x215 ?x215)))
 (let ((?x259 (+ (* (- 1) (* (+ 1 n) (+ 1 n) (+ 1 n) ?x215)) ?x225)))
 (let (($x410 (not (= (* ?x259 ?x1082) 0))))
 (let ((?x1210 (* x00 x00)))
 (let ((?x1211 (* 108 ?x1210)))
 (let ((?x196 (* y00 z00 z00 z00)))
 (let ((?x493 (* y00 y00)))
 (let ((?x964 (* 96 ?x493)))
 (let ((?x898 (* y00 y00 y00)))
 (let ((?x899 (* 16 ?x898)))
 (let ((?x769 (* (- 4) (* y y y))))
 (let ((?x717 (* 108 (* x x))))
 (let ((?x467 (* y y)))
 (let ((?x712 (* 24 ?x467)))
 (let ((?x1316 (+ (* 216 (* x00 y00)) (* 108 (* y x)) (* 36 (* x00 z00)) (* (- 2) (* z00 z00 z00 x)) (* 18 (* z00 z00 x)) (* (- 12) (* y00 y00 z00)) (* (- 1) (* y00 y00 z00 z00)) ?x712 ?x717 ?x769 (* 18 (* y00 z00 y)) (* 24 (* y00 z00)) (* (- 120) (* y00 y)) (* (- 24) (* z00 y)) ?x899 (* (- 6) (* z00 y y)) ?x964 (* (- 12) (* y00 y y)) (* (- 36) (* x00 y00 z00)) (* (- 108) (* x00 y)) (* (- 18) (* x00 z00 z00)) (* (- 216) (* x00 x)) ?x196 (* 2 (* x00 z00 z00 z00)) (* (- 216) (* y00 x)) (* z00 z00 y y) (* (- 10) (* y00 z00 z00)) (* (- 36) (* z00 x)) (* 36 (* y00 z00 x)) (* 10 (* z00 z00 y)) ?x1211 (* (- 1) (* z00 z00 z00 y)))))
 (let (($x1321 (= ?x1316 0)))
 (let ((?x74 (* 108 x00)))
 (let ((?x827 (* (- 72) y)))
 (let ((?x67 (* 72 y00)))
 (let ((?x859 (* (- 108) x)))
 (let ((?x439 (* x00 z)))
 (let ((?x1133 (* (- 18) ?x439)))
 (let ((?x694 (* 36 ?x493)))
 (let ((?x458 (* z y)))
 (let ((?x254 (* 12 ?x458)))
 (let ((?x334 (* z00 y)))
 (let ((?x235 (* (- 6) ?x334)))
 (let ((?x805 (* y00 z00)))
 (let ((?x445 (* 6 ?x805)))
 (let ((?x568 (* y00 z)))
 (let ((?x397 (* (- 12) ?x568)))
 (let ((?x842 (* y00 z00 y)))
 (let ((?x113 (* y00 y00 z00)))
 (let ((?x594 (* z x)))
 (let ((?x1140 (* 18 ?x594)))
 (let ((?x321 (+ (* 18 (* x00 y00)) (* 18 (* y x)) ?x1140 (* 3 (* z00 z00 x)) ?x113 (* (- 3) (* x00 z00 z)) ?x842 ?x397 ?x445 (* (- 36) (* y00 y)) ?x235 ?x254 (* 3 (* z00 z x)) (* (- 2) (* z00 y y)) ?x694 ?x1133 (* (- 1) (* z y y)) (* (- 18) (* x00 y)) (* (- 3) (* x00 z00 z00)) ?x859 ?x67 (* (- 18) (* y00 x)) ?x827 ?x74 (* (- 1) (* y00 z y)) (* (- 3) (* y00 z00 z00)) (* 2 (* y00 y00 z)) (* 3 (* z00 z00 y)))))
 (let ((?x1173 (* z00 z00 y)))
 (let ((?x335 (* 6 ?x334)))
 (let ((?x403 (* (- 6) ?x805)))
 (let ((?x1138 (* 24 ?x493)))
 (let ((?x533 (* y00 z00 z)))
 (let ((?x245 (+ ?x533 ?x254 ?x1140 (* (- 18) (* x00 z00)) (* (- 12) ?x467) ?x1138 ?x1133 ?x397 ?x403 (* (- 12) (* y00 y)) ?x859 ?x67 ?x335 ?x827 ?x74 (* (- 1) (* y00 z00 z00)) (* 18 (* z00 x)) (* (- 1) (* z00 z y)) ?x1173)))
 (let ((?x583 (* 12 ?x568)))
 (let ((?x1126 (* (- 6) ?x285)))
 (let ((?x55 (* z00 z00 z00)))
 (let ((?x877 (+ (* 6 ?x458) ?x55 ?x1126 ?x583 (* (- 18) ?x805) ?x859 ?x67 (* 6 (* z00 z)) ?x827 ?x74 (* (- 1) (* z00 z00 z)))))
 (let ((?x50 (* z z)))
 (let ((?x357 (* (- 1) ?x50)))
 (let ((?x355 (* (- 6) z00)))
 (let ((?x46 (* 6 z)))
 (let ((?x45 (* 12 y)))
 (let ((?x356 (* (- 12) y00)))
 (and (= (+ z (* (- 1) z00) (* (- 6) n) (* 6 n00)) 0) (= (+ ?x285 ?x356 ?x45 ?x46 ?x355 ?x357) 0) (= ?x877 0) (= ?x245 0) (= ?x321 0) $x1321 $x410)))))))))))))))))))))))))))))))))))))))))))))))))))))))))))) :qid k!38))
 ))
 (let ((?x579 (lambda ((x Int) (y Int) (z Int) (n Int) )(let ((?x285 (* z00 z00)))
 (let ((?x286 (* (- 1) ?x285)))
 (let ((?x50 (* z z)))
 (let ((?x43 (* 12 y00)))
 (let ((?x49 (* 6 z00)))
 (let ((?x331 (* (- 6) z)))
 (let ((?x309 (* (- 12) y)))
 (let ((?x347 (+ ?x309 ?x331 ?x49 ?x43 ?x50 ?x286)))
 (let ((?x467 (* y y)))
 (let ((?x369 (* y z)))
 (let ((?x1083 (* 2 ?x369)))
 (let ((?x237 (* (- 1) z)))
 (let ((?x1030 (* (- 1) y)))
 (let ((?x914 (+ ?x1030 ?x237 ?x50 ?x1083 (* (- 3) (* y n n)) ?x467 (* (- 1) (* z n n n)) (* (- 1) (* y n n n)) (* (- 3) (* y n)) (* (- 3) (* z n n)) (* (- 3) (* z n)))))
 (let ((?x1210 (* x00 x00)))
 (let ((?x1211 (* 108 ?x1210)))
 (let ((?x1107 (* z00 z00 z00 x00)))
 (let ((?x1108 (* 2 ?x1107)))
 (let ((?x1104 (* z00 z00 z00 y00)))
 (let ((?x1001 (* z00 y00 x00)))
 (let ((?x1014 (* (- 36) ?x1001)))
 (let ((?x898 (* y00 y00 y00)))
 (let ((?x899 (* 16 ?x898)))
 (let ((?x813 (* z00 z00 x00)))
 (let ((?x1064 (* (- 18) ?x813)))
 (let ((?x769 (* (- 4) (* y y y))))
 (let ((?x717 (* 108 (* x x))))
 (let ((?x670 (* z00 z00 y00 y00)))
 (let ((?x685 (* (- 1) ?x670)))
 (let ((?x627 (* z00 z00 y00)))
 (let ((?x1165 (* (- 10) ?x627)))
 (let ((?x602 (* z00 y00 y00)))
 (let ((?x637 (* (- 12) ?x602)))
 (let ((?x493 (* y00 y00)))
 (let ((?x964 (* 96 ?x493)))
 (let ((?x712 (* 24 ?x467)))
 (let ((?x463 (* z00 x00)))
 (let ((?x381 (* 36 ?x463)))
 (let ((?x426 (* z00 y00)))
 (let ((?x791 (* 24 ?x426)))
 (let ((?x373 (* y00 x00)))
 (let ((?x364 (* 216 ?x373)))
 (let ((?x201 (* y y z00 z00)))
 (let ((?x1231 (+ (* 10 (* y z00 z00)) ?x201 (* (- 1) (* y z00 z00 z00)) ?x364 (* (- 2) (* x z00 z00 z00)) (* 108 (* x y)) ?x791 ?x381 ?x712 ?x964 (* (- 120) (* y y00)) (* 18 (* x z00 z00)) (* (- 24) (* y z00)) ?x637 ?x1165 (* (- 36) (* x z00)) (* 18 (* y z00 y00)) ?x685 ?x717 ?x769 (* (- 6) (* y y z00)) (* (- 108) (* y x00)) ?x1064 (* (- 216) (* x y00)) ?x899 (* (- 12) (* y y y00)) ?x1014 (* (- 216) (* x x00)) ?x1104 ?x1108 (* 36 (* x z00 y00)) ?x1211)))
 (let (($x1236 (= ?x1231 0)))
 (let ((?x814 (* 3 ?x813)))
 (let ((?x876 (* 3 ?x627)))
 (let ((?x609 (* (- 1) ?x602)))
 (let ((?x539 (* 18 (* z x00))))
 (let ((?x796 (* (- 36) ?x493)))
 (let ((?x701 (* (- 6) ?x426)))
 (let ((?x400 (* z y00)))
 (let ((?x401 (* 12 ?x400)))
 (let ((?x434 (* (- 18) (* x z))))
 (let ((?x374 (* (- 18) ?x373)))
 (let ((?x393 (* (- 12) ?x369)))
 (let ((?x135 (* y y z)))
 (let ((?x505 (* (- 108) x00)))
 (let ((?x448 (* (- 72) y00)))
 (let ((?x71 (* 72 y)))
 (let ((?x64 (* 108 x)))
 (let ((?x932 (+ ?x64 ?x71 ?x448 ?x505 (* (- 3) (* y z00 z00)) ?x135 ?x393 ?x374 (* (- 18) (* x y)) ?x434 ?x401 ?x701 ?x796 ?x539 (* 36 (* y y00)) (* (- 3) (* x z00 z00)) (* 6 (* y z00)) ?x609 ?x876 (* 3 (* z z00 x00)) (* (- 1) (* y z00 y00)) (* (- 3) (* x z z00)) (* 2 (* y y z00)) (* 18 (* y x00)) ?x814 (* 18 (* x y00)) (* y z y00) (* (- 2) (* z y00 y00)))))
 (let (($x939 (= ?x932 0)))
 (let ((?x522 (* (- 24) ?x493)))
 (let ((?x470 (* 12 ?x467)))
 (let ((?x464 (* 18 ?x463)))
 (let ((?x542 (* 6 ?x426)))
 (let ((?x103 (* y z z00)))
 (let ((?x681 (+ ?x64 ?x71 ?x448 ?x505 ?x103 (* (- 1) (* y z00 z00)) (* (- 1) (* z z00 y00)) ?x393 ?x434 ?x401 ?x542 ?x464 ?x470 ?x522 ?x539 (* 12 (* y y00)) (* (- 6) (* y z00)) ?x627 (* (- 18) (* x z00)))))
 (let (($x686 (= ?x681 0)))
 (let ((?x427 (* 18 ?x426)))
 (let ((?x389 (* 6 ?x285)))
 (let ((?x76 (* z z00 z00)))
 (let ((?x55 (* z00 z00 z00)))
 (let ((?x378 (* (- 1) ?x55)))
 (let ((?x521 (+ ?x64 ?x71 ?x448 ?x378 ?x505 ?x76 ?x389 (* (- 6) ?x369) (* (- 12) ?x400) ?x427 (* (- 6) (* z z00)))))
 (let (($x526 (= ?x521 0)))
 (let ((?x357 (* (- 1) ?x50)))
 (let ((?x356 (* (- 12) y00)))
 (let ((?x355 (* (- 6) z00)))
 (let ((?x46 (* 6 z)))
 (let ((?x45 (* 12 y)))
 (let (($x359 (= (+ ?x45 ?x46 ?x355 ?x356 ?x357 ?x285) 0)))
 (let (($x277 (= (+ z (* (- 6) n) (* (- 1) z00) (* 6 n00)) 0)))
 (let (($x781 (and $x277 $x359 $x526 $x686 $x939 $x1236 (not (= (* ?x914 ?x347) 0)))))
 (let ((?x1082 (+ (- 36) ?x286 ?x43 ?x309 (* (- 18) z) ?x49 (* (+ 6 z) (+ 6 z)))))
 (let ((?x215 (+ y z)))
 (let ((?x225 (* ?x215 ?x215)))
 (let ((?x259 (+ (* (- 1) (* (+ 1 n) (+ 1 n) (+ 1 n) ?x215)) ?x225)))
 (let (($x410 (not (= (* ?x259 ?x1082) 0))))
 (let ((?x196 (* y00 z00 z00 z00)))
 (let ((?x1316 (+ (* 216 (* x00 y00)) (* 108 (* y x)) (* 36 (* x00 z00)) (* (- 2) (* z00 z00 z00 x)) (* 18 (* z00 z00 x)) (* (- 12) (* y00 y00 z00)) (* (- 1) (* y00 y00 z00 z00)) ?x712 ?x717 ?x769 (* 18 (* y00 z00 y)) (* 24 (* y00 z00)) (* (- 120) (* y00 y)) (* (- 24) (* z00 y)) ?x899 (* (- 6) (* z00 y y)) ?x964 (* (- 12) (* y00 y y)) (* (- 36) (* x00 y00 z00)) (* (- 108) (* x00 y)) (* (- 18) (* x00 z00 z00)) (* (- 216) (* x00 x)) ?x196 (* 2 (* x00 z00 z00 z00)) (* (- 216) (* y00 x)) (* z00 z00 y y) (* (- 10) (* y00 z00 z00)) (* (- 36) (* z00 x)) (* 36 (* y00 z00 x)) (* 10 (* z00 z00 y)) ?x1211 (* (- 1) (* z00 z00 z00 y)))))
 (let (($x1321 (= ?x1316 0)))
 (let ((?x74 (* 108 x00)))
 (let ((?x827 (* (- 72) y)))
 (let ((?x67 (* 72 y00)))
 (let ((?x859 (* (- 108) x)))
 (let ((?x439 (* x00 z)))
 (let ((?x1133 (* (- 18) ?x439)))
 (let ((?x694 (* 36 ?x493)))
 (let ((?x458 (* z y)))
 (let ((?x254 (* 12 ?x458)))
 (let ((?x334 (* z00 y)))
 (let ((?x235 (* (- 6) ?x334)))
 (let ((?x805 (* y00 z00)))
 (let ((?x445 (* 6 ?x805)))
 (let ((?x568 (* y00 z)))
 (let ((?x397 (* (- 12) ?x568)))
 (let ((?x842 (* y00 z00 y)))
 (let ((?x113 (* y00 y00 z00)))
 (let ((?x594 (* z x)))
 (let ((?x1140 (* 18 ?x594)))
 (let ((?x321 (+ (* 18 (* x00 y00)) (* 18 (* y x)) ?x1140 (* 3 (* z00 z00 x)) ?x113 (* (- 3) (* x00 z00 z)) ?x842 ?x397 ?x445 (* (- 36) (* y00 y)) ?x235 ?x254 (* 3 (* z00 z x)) (* (- 2) (* z00 y y)) ?x694 ?x1133 (* (- 1) (* z y y)) (* (- 18) (* x00 y)) (* (- 3) (* x00 z00 z00)) ?x859 ?x67 (* (- 18) (* y00 x)) ?x827 ?x74 (* (- 1) (* y00 z y)) (* (- 3) (* y00 z00 z00)) (* 2 (* y00 y00 z)) (* 3 (* z00 z00 y)))))
 (let ((?x1173 (* z00 z00 y)))
 (let ((?x335 (* 6 ?x334)))
 (let ((?x403 (* (- 6) ?x805)))
 (let ((?x1138 (* 24 ?x493)))
 (let ((?x533 (* y00 z00 z)))
 (let ((?x245 (+ ?x533 ?x254 ?x1140 (* (- 18) (* x00 z00)) (* (- 12) ?x467) ?x1138 ?x1133 ?x397 ?x403 (* (- 12) (* y00 y)) ?x859 ?x67 ?x335 ?x827 ?x74 (* (- 1) (* y00 z00 z00)) (* 18 (* z00 x)) (* (- 1) (* z00 z y)) ?x1173)))
 (let ((?x583 (* 12 ?x568)))
 (let ((?x1126 (* (- 6) ?x285)))
 (let ((?x877 (+ (* 6 ?x458) ?x55 ?x1126 ?x583 (* (- 18) ?x805) ?x859 ?x67 (* 6 (* z00 z)) ?x827 ?x74 (* (- 1) (* z00 z00 z)))))
 (let (($x323 (and (= (+ z (* (- 1) z00) (* (- 6) n) (* 6 n00)) 0) (= (+ ?x285 ?x356 ?x45 ?x46 ?x355 ?x357) 0) (= ?x877 0) (= ?x245 0) (= ?x321 0) $x1321 $x410)))
 (rewrite (= $x323 $x781))))))))))))))))))))))))))))))))))))))))))))))))))))))))))))))))))))))))))))))))))))))))))))))))))))))))))))))))))))))))))))))
 ))
 (let (($x436 (exists ((x Int) (y Int) (z Int) (n Int) )(! (let ((?x49 (* 6 z00)))
 (let ((?x309 (* (- 12) y)))
 (let ((?x43 (* 12 y00)))
 (let ((?x285 (* z00 z00)))
 (let ((?x286 (* (- 1) ?x285)))
 (let ((?x1082 (+ (- 36) ?x286 ?x43 ?x309 (* (- 18) z) ?x49 (* (+ 6 z) (+ 6 z)))))
 (let ((?x215 (+ y z)))
 (let ((?x225 (* ?x215 ?x215)))
 (let ((?x259 (+ (* (- 1) (* (+ 1 n) (+ 1 n) (+ 1 n) ?x215)) ?x225)))
 (let (($x410 (not (= (* ?x259 ?x1082) 0))))
 (let ((?x1210 (* x00 x00)))
 (let ((?x1211 (* 108 ?x1210)))
 (let ((?x196 (* y00 z00 z00 z00)))
 (let ((?x493 (* y00 y00)))
 (let ((?x964 (* 96 ?x493)))
 (let ((?x898 (* y00 y00 y00)))
 (let ((?x899 (* 16 ?x898)))
 (let ((?x769 (* (- 4) (* y y y))))
 (let ((?x717 (* 108 (* x x))))
 (let ((?x467 (* y y)))
 (let ((?x712 (* 24 ?x467)))
 (let ((?x1316 (+ (* 216 (* x00 y00)) (* 108 (* y x)) (* 36 (* x00 z00)) (* (- 2) (* z00 z00 z00 x)) (* 18 (* z00 z00 x)) (* (- 12) (* y00 y00 z00)) (* (- 1) (* y00 y00 z00 z00)) ?x712 ?x717 ?x769 (* 18 (* y00 z00 y)) (* 24 (* y00 z00)) (* (- 120) (* y00 y)) (* (- 24) (* z00 y)) ?x899 (* (- 6) (* z00 y y)) ?x964 (* (- 12) (* y00 y y)) (* (- 36) (* x00 y00 z00)) (* (- 108) (* x00 y)) (* (- 18) (* x00 z00 z00)) (* (- 216) (* x00 x)) ?x196 (* 2 (* x00 z00 z00 z00)) (* (- 216) (* y00 x)) (* z00 z00 y y) (* (- 10) (* y00 z00 z00)) (* (- 36) (* z00 x)) (* 36 (* y00 z00 x)) (* 10 (* z00 z00 y)) ?x1211 (* (- 1) (* z00 z00 z00 y)))))
 (let (($x1321 (= ?x1316 0)))
 (let ((?x1066 (* y00 z y)))
 (let ((?x505 (* (- 108) x00)))
 (let ((?x71 (* 72 y)))
 (let ((?x448 (* (- 72) y00)))
 (let ((?x64 (* 108 x)))
 (let ((?x654 (* z y y)))
 (let ((?x439 (* x00 z)))
 (let ((?x440 (* 18 ?x439)))
 (let ((?x796 (* (- 36) ?x493)))
 (let ((?x458 (* z y)))
 (let ((?x869 (* (- 12) ?x458)))
 (let ((?x334 (* z00 y)))
 (let ((?x335 (* 6 ?x334)))
 (let ((?x805 (* y00 z00)))
 (let ((?x403 (* (- 6) ?x805)))
 (let ((?x568 (* y00 z)))
 (let ((?x583 (* 12 ?x568)))
 (let ((?x594 (* z x)))
 (let ((?x885 (* (- 18) ?x594)))
 (let ((?x561 (+ (* (- 18) (* x00 y00)) (* (- 18) (* y x)) ?x885 (* (- 3) (* z00 z00 x)) (* (- 1) (* y00 y00 z00)) (* 3 (* x00 z00 z)) (* (- 1) (* y00 z00 y)) ?x583 ?x403 (* 36 (* y00 y)) ?x335 ?x869 (* (- 3) (* z00 z x)) (* 2 (* z00 y y)) ?x796 ?x440 ?x654 (* 18 (* x00 y)) (* 3 (* x00 z00 z00)) ?x64 ?x448 (* 18 (* y00 x)) ?x71 ?x505 ?x1066 (* 3 (* y00 z00 z00)) (* (- 2) (* y00 y00 z)) (* (- 3) (* z00 z00 y)))))
 (let ((?x541 (* z00 z y)))
 (let ((?x99 (* y00 z00 z00)))
 (let ((?x235 (* (- 6) ?x334)))
 (let ((?x445 (* 6 ?x805)))
 (let ((?x522 (* (- 24) ?x493)))
 (let ((?x470 (* 12 ?x467)))
 (let ((?x1098 (+ (* (- 1) (* y00 z00 z)) ?x869 ?x885 (* 18 (* x00 z00)) ?x470 ?x522 ?x440 ?x583 ?x445 (* 12 (* y00 y)) ?x64 ?x448 ?x235 ?x71 ?x505 ?x99 (* (- 18) (* z00 x)) ?x541 (* (- 1) (* z00 z00 y)))))
 (let ((?x622 (* z00 z00 z)))
 (let ((?x397 (* (- 12) ?x568)))
 (let ((?x389 (* 6 ?x285)))
 (let ((?x55 (* z00 z00 z00)))
 (let ((?x378 (* (- 1) ?x55)))
 (let ((?x574 (+ (* (- 6) ?x458) ?x378 ?x389 ?x397 (* 18 ?x805) ?x64 ?x448 (* (- 6) (* z00 z)) ?x71 ?x505 ?x622)))
 (and (= (+ (* (- 1) z) z00 (* 6 n) (* (- 6) n00)) 0) (= (+ ?x286 ?x43 ?x309 (* (- 6) z) ?x49 (* z z)) 0) (= ?x574 0) (= ?x1098 0) (= ?x561 0) $x1321 $x410))))))))))))))))))))))))))))))))))))))))))))))))))))))))) :qid k!38))
 ))
 (let ((?x322 (lambda ((x Int) (y Int) (z Int) (n Int) )(let ((?x49 (* 6 z00)))
 (let ((?x309 (* (- 12) y)))
 (let ((?x43 (* 12 y00)))
 (let ((?x285 (* z00 z00)))
 (let ((?x286 (* (- 1) ?x285)))
 (let ((?x1082 (+ (- 36) ?x286 ?x43 ?x309 (* (- 18) z) ?x49 (* (+ 6 z) (+ 6 z)))))
 (let ((?x215 (+ y z)))
 (let ((?x225 (* ?x215 ?x215)))
 (let ((?x259 (+ (* (- 1) (* (+ 1 n) (+ 1 n) (+ 1 n) ?x215)) ?x225)))
 (let (($x410 (not (= (* ?x259 ?x1082) 0))))
 (let ((?x1210 (* x00 x00)))
 (let ((?x1211 (* 108 ?x1210)))
 (let ((?x196 (* y00 z00 z00 z00)))
 (let ((?x493 (* y00 y00)))
 (let ((?x964 (* 96 ?x493)))
 (let ((?x898 (* y00 y00 y00)))
 (let ((?x899 (* 16 ?x898)))
 (let ((?x769 (* (- 4) (* y y y))))
 (let ((?x717 (* 108 (* x x))))
 (let ((?x467 (* y y)))
 (let ((?x712 (* 24 ?x467)))
 (let ((?x1316 (+ (* 216 (* x00 y00)) (* 108 (* y x)) (* 36 (* x00 z00)) (* (- 2) (* z00 z00 z00 x)) (* 18 (* z00 z00 x)) (* (- 12) (* y00 y00 z00)) (* (- 1) (* y00 y00 z00 z00)) ?x712 ?x717 ?x769 (* 18 (* y00 z00 y)) (* 24 (* y00 z00)) (* (- 120) (* y00 y)) (* (- 24) (* z00 y)) ?x899 (* (- 6) (* z00 y y)) ?x964 (* (- 12) (* y00 y y)) (* (- 36) (* x00 y00 z00)) (* (- 108) (* x00 y)) (* (- 18) (* x00 z00 z00)) (* (- 216) (* x00 x)) ?x196 (* 2 (* x00 z00 z00 z00)) (* (- 216) (* y00 x)) (* z00 z00 y y) (* (- 10) (* y00 z00 z00)) (* (- 36) (* z00 x)) (* 36 (* y00 z00 x)) (* 10 (* z00 z00 y)) ?x1211 (* (- 1) (* z00 z00 z00 y)))))
 (let (($x1321 (= ?x1316 0)))
 (let ((?x74 (* 108 x00)))
 (let ((?x827 (* (- 72) y)))
 (let ((?x67 (* 72 y00)))
 (let ((?x859 (* (- 108) x)))
 (let ((?x439 (* x00 z)))
 (let ((?x1133 (* (- 18) ?x439)))
 (let ((?x694 (* 36 ?x493)))
 (let ((?x458 (* z y)))
 (let ((?x254 (* 12 ?x458)))
 (let ((?x334 (* z00 y)))
 (let ((?x235 (* (- 6) ?x334)))
 (let ((?x805 (* y00 z00)))
 (let ((?x445 (* 6 ?x805)))
 (let ((?x568 (* y00 z)))
 (let ((?x397 (* (- 12) ?x568)))
 (let ((?x842 (* y00 z00 y)))
 (let ((?x113 (* y00 y00 z00)))
 (let ((?x594 (* z x)))
 (let ((?x1140 (* 18 ?x594)))
 (let ((?x321 (+ (* 18 (* x00 y00)) (* 18 (* y x)) ?x1140 (* 3 (* z00 z00 x)) ?x113 (* (- 3) (* x00 z00 z)) ?x842 ?x397 ?x445 (* (- 36) (* y00 y)) ?x235 ?x254 (* 3 (* z00 z x)) (* (- 2) (* z00 y y)) ?x694 ?x1133 (* (- 1) (* z y y)) (* (- 18) (* x00 y)) (* (- 3) (* x00 z00 z00)) ?x859 ?x67 (* (- 18) (* y00 x)) ?x827 ?x74 (* (- 1) (* y00 z y)) (* (- 3) (* y00 z00 z00)) (* 2 (* y00 y00 z)) (* 3 (* z00 z00 y)))))
 (let ((?x1173 (* z00 z00 y)))
 (let ((?x335 (* 6 ?x334)))
 (let ((?x403 (* (- 6) ?x805)))
 (let ((?x1138 (* 24 ?x493)))
 (let ((?x533 (* y00 z00 z)))
 (let ((?x245 (+ ?x533 ?x254 ?x1140 (* (- 18) (* x00 z00)) (* (- 12) ?x467) ?x1138 ?x1133 ?x397 ?x403 (* (- 12) (* y00 y)) ?x859 ?x67 ?x335 ?x827 ?x74 (* (- 1) (* y00 z00 z00)) (* 18 (* z00 x)) (* (- 1) (* z00 z y)) ?x1173)))
 (let ((?x583 (* 12 ?x568)))
 (let ((?x1126 (* (- 6) ?x285)))
 (let ((?x55 (* z00 z00 z00)))
 (let ((?x877 (+ (* 6 ?x458) ?x55 ?x1126 ?x583 (* (- 18) ?x805) ?x859 ?x67 (* 6 (* z00 z)) ?x827 ?x74 (* (- 1) (* z00 z00 z)))))
 (let ((?x50 (* z z)))
 (let ((?x357 (* (- 1) ?x50)))
 (let ((?x355 (* (- 6) z00)))
 (let ((?x46 (* 6 z)))
 (let ((?x45 (* 12 y)))
 (let ((?x356 (* (- 12) y00)))
 (let (($x323 (and (= (+ z (* (- 1) z00) (* (- 6) n) (* 6 n00)) 0) (= (+ ?x285 ?x356 ?x45 ?x46 ?x355 ?x357) 0) (= ?x877 0) (= ?x245 0) (= ?x321 0) $x1321 $x410)))
 (let ((?x1066 (* y00 z y)))
 (let ((?x505 (* (- 108) x00)))
 (let ((?x71 (* 72 y)))
 (let ((?x448 (* (- 72) y00)))
 (let ((?x64 (* 108 x)))
 (let ((?x654 (* z y y)))
 (let ((?x440 (* 18 ?x439)))
 (let ((?x796 (* (- 36) ?x493)))
 (let ((?x869 (* (- 12) ?x458)))
 (let ((?x885 (* (- 18) ?x594)))
 (let ((?x561 (+ (* (- 18) (* x00 y00)) (* (- 18) (* y x)) ?x885 (* (- 3) (* z00 z00 x)) (* (- 1) ?x113) (* 3 (* x00 z00 z)) (* (- 1) ?x842) ?x583 ?x403 (* 36 (* y00 y)) ?x335 ?x869 (* (- 3) (* z00 z x)) (* 2 (* z00 y y)) ?x796 ?x440 ?x654 (* 18 (* x00 y)) (* 3 (* x00 z00 z00)) ?x64 ?x448 (* 18 (* y00 x)) ?x71 ?x505 ?x1066 (* 3 (* y00 z00 z00)) (* (- 2) (* y00 y00 z)) (* (- 3) ?x1173))))
 (let ((?x541 (* z00 z y)))
 (let ((?x99 (* y00 z00 z00)))
 (let ((?x522 (* (- 24) ?x493)))
 (let ((?x470 (* 12 ?x467)))
 (let ((?x1098 (+ (* (- 1) ?x533) ?x869 ?x885 (* 18 (* x00 z00)) ?x470 ?x522 ?x440 ?x583 ?x445 (* 12 (* y00 y)) ?x64 ?x448 ?x235 ?x71 ?x505 ?x99 (* (- 18) (* z00 x)) ?x541 (* (- 1) ?x1173))))
 (let ((?x622 (* z00 z00 z)))
 (let ((?x389 (* 6 ?x285)))
 (let ((?x378 (* (- 1) ?x55)))
 (let ((?x574 (+ (* (- 6) ?x458) ?x378 ?x389 ?x397 (* 18 ?x805) ?x64 ?x448 (* (- 6) (* z00 z)) ?x71 ?x505 ?x622)))
 (let (($x990 (and (= (+ (* (- 1) z) z00 (* 6 n) (* (- 6) n00)) 0) (= (+ ?x286 ?x43 ?x309 (* (- 6) z) ?x49 ?x50) 0) (= ?x574 0) (= ?x1098 0) (= ?x561 0) $x1321 $x410)))
 (rewrite (= $x990 $x323))))))))))))))))))))))))))))))))))))))))))))))))))))))))))))))))))))))))))))))))))))
 ))
 (let (($x232 (exists ((x Int) (y Int) (z Int) (n Int) )(! (let ((?x215 (+ y z)))
 (let ((?x225 (* ?x215 ?x215)))
 (let ((?x226 (+ (* (- 1) (+ n 1) (+ n 1) (+ n 1) ?x215) ?x225)))
 (let ((?x49 (* 6 z00)))
 (let ((?x220 (- (- (+ (* (- 1) z00 z00) (* 12 y00)) (* 12 ?x215)) (* 6 (+ z 6)))))
 (let (($x229 (not (= (* (+ ?x220 ?x49 (* (+ z 6) (+ z 6))) ?x226) 0))))
 (let ((?x212 (* y z00 z00 z00)))
 (let ((?x201 (* y y z00 z00)))
 (let ((?x196 (* y00 z00 z00 z00)))
 (let ((?x161 (* y00 y00 z00 z00)))
 (let ((?x157 (- (+ (* 216 x00 y00) (* 108 x y) (* 36 x00 z00)) (* 2 x z00 z00 z00))))
 (let ((?x163 (- (- (+ ?x157 (* 18 x z00 z00)) (* 12 y00 y00 z00)) ?x161)))
 (let ((?x169 (- (+ ?x163 (* 24 y y) (* 108 x x)) (* 4 y y y))))
 (let ((?x176 (- (+ ?x169 (* 18 y y00 z00) (* 24 y00 z00)) (* 120 y y00))))
 (let ((?x182 (- (+ (- ?x176 (* 24 y z00)) (* 16 y00 y00 y00)) (* 6 y y z00))))
 (let ((?x192 (- (- (+ ?x182 (* 96 y00 y00)) (* 12 y y y00)) (* 36 x00 y00 z00))))
 (let ((?x195 (- (- (- ?x192 (* 108 x00 y)) (* 18 x00 z00 z00)) (* 216 x x00))))
 (let ((?x200 (- (+ ?x195 ?x196 (* 2 x00 z00 z00 z00)) (* 216 x y00))))
 (let ((?x207 (- (- (+ ?x200 ?x201) (* 10 y00 z00 z00)) (* 36 x z00))))
 (let ((?x211 (+ ?x207 (* 36 x y00 z00) (* 10 y z00 z00) (* 108 x00 x00))))
 (let ((?x74 (* 108 x00)))
 (let ((?x71 (* 72 y)))
 (let ((?x67 (* 72 y00)))
 (let ((?x64 (* 108 x)))
 (let ((?x135 (* y y z)))
 (let ((?x90 (* 18 x00 z)))
 (let ((?x80 (* 12 y z)))
 (let ((?x94 (* 6 y z00)))
 (let ((?x91 (* 6 y00 z00)))
 (let ((?x59 (* 12 y00 z)))
 (let ((?x113 (* y00 y00 z00)))
 (let ((?x81 (* 18 x z)))
 (let ((?x116 (- (- (- (* (- 18) x00 y00) (* 18 x y)) ?x81) (* 3 x z00 z00))))
 (let ((?x121 (- (+ (- ?x116 ?x113) (* 3 x00 z z00)) (* y y00 z00))))
 (let ((?x129 (- (- (+ (- (+ ?x121 ?x59) ?x91) (* 36 y y00) ?x94) ?x80) (* 3 x z z00))))
 (let ((?x138 (+ (- (+ ?x129 (* 2 y y z00)) (* 36 y00 y00)) ?x90 ?x135 (* 18 x00 y) (* 3 x00 z00 z00) ?x64)))
 (let ((?x145 (+ (- (+ (- ?x138 ?x67) (* 18 x y00) ?x71) ?x74) (* y y00 z) (* 3 y00 z00 z00))))
 (let (($x150 (= (- (- ?x145 (* 2 y00 y00 z)) (* 3 y z00 z00)) 0)))
 (let ((?x105 (* y z00 z00)))
 (let ((?x103 (* y z z00)))
 (let ((?x99 (* y00 z00 z00)))
 (let ((?x86 (+ (- (- (* (- 1) y00 z z00) ?x80) ?x81) (* 18 x00 z00) (* 12 y y))))
 (let ((?x93 (+ (- ?x86 (* 24 y00 y00)) ?x90 ?x59 ?x91 (* 12 y y00) ?x64)))
 (let ((?x102 (- (+ (- (+ (- (- ?x93 ?x67) ?x94) ?x71) ?x74) ?x99) (* 18 x z00))))
 (let ((?x76 (* z z00 z00)))
 (let ((?x58 (+ (- (* (- 6) y z) (* z00 z00 z00)) (* 6 z00 z00))))
 (let ((?x70 (- (- (+ (- ?x58 ?x59) (* 18 y00 z00) ?x64) ?x67) (* 6 z z00))))
 (let ((?x50 (* z z)))
 (let ((?x46 (* 6 z)))
 (let ((?x48 (- (- (+ (* (- 1) z00 z00) (* 12 y00)) (* 12 y)) ?x46)))
 (let (($x39 (= (- (+ (* (- 1) z) z00 (* 6 n)) (* 6 n00)) 0)))
 (and $x39 (= (+ ?x48 ?x49 ?x50) 0) (= (+ (- (+ ?x70 ?x71) ?x74) ?x76) 0) (= (- (+ ?x102 ?x103) ?x105) 0) $x150 (= (- ?x211 ?x212) 0) (or $x229))))))))))))))))))))))))))))))))))))))))))))))))))))) :qid k!38))
 ))
 (let ((?x524 (lambda ((x Int) (y Int) (z Int) (n Int) )(let ((?x49 (* 6 z00)))
 (let ((?x309 (* (- 12) y)))
 (let ((?x43 (* 12 y00)))
 (let ((?x285 (* z00 z00)))
 (let ((?x286 (* (- 1) ?x285)))
 (let ((?x1082 (+ (- 36) ?x286 ?x43 ?x309 (* (- 18) z) ?x49 (* (+ 6 z) (+ 6 z)))))
 (let ((?x215 (+ y z)))
 (let ((?x225 (* ?x215 ?x215)))
 (let ((?x259 (+ (* (- 1) (* (+ 1 n) (+ 1 n) (+ 1 n) ?x215)) ?x225)))
 (let (($x410 (not (= (* ?x259 ?x1082) 0))))
 (let ((?x1210 (* x00 x00)))
 (let ((?x1211 (* 108 ?x1210)))
 (let ((?x196 (* y00 z00 z00 z00)))
 (let ((?x493 (* y00 y00)))
 (let ((?x964 (* 96 ?x493)))
 (let ((?x898 (* y00 y00 y00)))
 (let ((?x899 (* 16 ?x898)))
 (let ((?x769 (* (- 4) (* y y y))))
 (let ((?x717 (* 108 (* x x))))
 (let ((?x467 (* y y)))
 (let ((?x712 (* 24 ?x467)))
 (let ((?x1316 (+ (* 216 (* x00 y00)) (* 108 (* y x)) (* 36 (* x00 z00)) (* (- 2) (* z00 z00 z00 x)) (* 18 (* z00 z00 x)) (* (- 12) (* y00 y00 z00)) (* (- 1) (* y00 y00 z00 z00)) ?x712 ?x717 ?x769 (* 18 (* y00 z00 y)) (* 24 (* y00 z00)) (* (- 120) (* y00 y)) (* (- 24) (* z00 y)) ?x899 (* (- 6) (* z00 y y)) ?x964 (* (- 12) (* y00 y y)) (* (- 36) (* x00 y00 z00)) (* (- 108) (* x00 y)) (* (- 18) (* x00 z00 z00)) (* (- 216) (* x00 x)) ?x196 (* 2 (* x00 z00 z00 z00)) (* (- 216) (* y00 x)) (* z00 z00 y y) (* (- 10) (* y00 z00 z00)) (* (- 36) (* z00 x)) (* 36 (* y00 z00 x)) (* 10 (* z00 z00 y)) ?x1211 (* (- 1) (* z00 z00 z00 y)))))
 (let (($x1321 (= ?x1316 0)))
 (let ((?x1066 (* y00 z y)))
 (let ((?x505 (* (- 108) x00)))
 (let ((?x71 (* 72 y)))
 (let ((?x448 (* (- 72) y00)))
 (let ((?x64 (* 108 x)))
 (let ((?x654 (* z y y)))
 (let ((?x439 (* x00 z)))
 (let ((?x440 (* 18 ?x439)))
 (let ((?x796 (* (- 36) ?x493)))
 (let ((?x458 (* z y)))
 (let ((?x869 (* (- 12) ?x458)))
 (let ((?x334 (* z00 y)))
 (let ((?x335 (* 6 ?x334)))
 (let ((?x805 (* y00 z00)))
 (let ((?x403 (* (- 6) ?x805)))
 (let ((?x568 (* y00 z)))
 (let ((?x583 (* 12 ?x568)))
 (let ((?x594 (* z x)))
 (let ((?x885 (* (- 18) ?x594)))
 (let ((?x561 (+ (* (- 18) (* x00 y00)) (* (- 18) (* y x)) ?x885 (* (- 3) (* z00 z00 x)) (* (- 1) (* y00 y00 z00)) (* 3 (* x00 z00 z)) (* (- 1) (* y00 z00 y)) ?x583 ?x403 (* 36 (* y00 y)) ?x335 ?x869 (* (- 3) (* z00 z x)) (* 2 (* z00 y y)) ?x796 ?x440 ?x654 (* 18 (* x00 y)) (* 3 (* x00 z00 z00)) ?x64 ?x448 (* 18 (* y00 x)) ?x71 ?x505 ?x1066 (* 3 (* y00 z00 z00)) (* (- 2) (* y00 y00 z)) (* (- 3) (* z00 z00 y)))))
 (let ((?x541 (* z00 z y)))
 (let ((?x99 (* y00 z00 z00)))
 (let ((?x235 (* (- 6) ?x334)))
 (let ((?x445 (* 6 ?x805)))
 (let ((?x522 (* (- 24) ?x493)))
 (let ((?x470 (* 12 ?x467)))
 (let ((?x1098 (+ (* (- 1) (* y00 z00 z)) ?x869 ?x885 (* 18 (* x00 z00)) ?x470 ?x522 ?x440 ?x583 ?x445 (* 12 (* y00 y)) ?x64 ?x448 ?x235 ?x71 ?x505 ?x99 (* (- 18) (* z00 x)) ?x541 (* (- 1) (* z00 z00 y)))))
 (let ((?x622 (* z00 z00 z)))
 (let ((?x397 (* (- 12) ?x568)))
 (let ((?x389 (* 6 ?x285)))
 (let ((?x55 (* z00 z00 z00)))
 (let ((?x378 (* (- 1) ?x55)))
 (let ((?x574 (+ (* (- 6) ?x458) ?x378 ?x389 ?x397 (* 18 ?x805) ?x64 ?x448 (* (- 6) (* z00 z)) ?x71 ?x505 ?x622)))
 (let (($x990 (and (= (+ (* (- 1) z) z00 (* 6 n) (* (- 6) n00)) 0) (= (+ ?x286 ?x43 ?x309 (* (- 6) z) ?x49 (* z z)) 0) (= ?x574 0) (= ?x1098 0) (= ?x561 0) $x1321 $x410)))
 (let ((?x226 (+ (* (- 1) (+ n 1) (+ n 1) (+ n 1) ?x215) ?x225)))
 (let ((?x220 (- (- (+ (* (- 1) z00 z00) ?x43) (* 12 ?x215)) (* 6 (+ z 6)))))
 (let (($x229 (not (= (* (+ ?x220 ?x49 (* (+ z 6) (+ z 6))) ?x226) 0))))
 (let ((?x212 (* y z00 z00 z00)))
 (let ((?x201 (* y y z00 z00)))
 (let ((?x161 (* y00 y00 z00 z00)))
 (let ((?x157 (- (+ (* 216 x00 y00) (* 108 x y) (* 36 x00 z00)) (* 2 x z00 z00 z00))))
 (let ((?x163 (- (- (+ ?x157 (* 18 x z00 z00)) (* 12 y00 y00 z00)) ?x161)))
 (let ((?x169 (- (+ ?x163 (* 24 y y) (* 108 x x)) (* 4 y y y))))
 (let ((?x176 (- (+ ?x169 (* 18 y y00 z00) (* 24 y00 z00)) (* 120 y y00))))
 (let ((?x182 (- (+ (- ?x176 (* 24 y z00)) (* 16 y00 y00 y00)) (* 6 y y z00))))
 (let ((?x192 (- (- (+ ?x182 (* 96 y00 y00)) (* 12 y y y00)) (* 36 x00 y00 z00))))
 (let ((?x195 (- (- (- ?x192 (* 108 x00 y)) (* 18 x00 z00 z00)) (* 216 x x00))))
 (let ((?x200 (- (+ ?x195 ?x196 (* 2 x00 z00 z00 z00)) (* 216 x y00))))
 (let ((?x207 (- (- (+ ?x200 ?x201) (* 10 y00 z00 z00)) (* 36 x z00))))
 (let ((?x211 (+ ?x207 (* 36 x y00 z00) (* 10 y z00 z00) (* 108 x00 x00))))
 (let ((?x74 (* 108 x00)))
 (let ((?x67 (* 72 y00)))
 (let ((?x135 (* y y z)))
 (let ((?x90 (* 18 x00 z)))
 (let ((?x80 (* 12 y z)))
 (let ((?x94 (* 6 y z00)))
 (let ((?x91 (* 6 y00 z00)))
 (let ((?x59 (* 12 y00 z)))
 (let ((?x113 (* y00 y00 z00)))
 (let ((?x81 (* 18 x z)))
 (let ((?x116 (- (- (- (* (- 18) x00 y00) (* 18 x y)) ?x81) (* 3 x z00 z00))))
 (let ((?x121 (- (+ (- ?x116 ?x113) (* 3 x00 z z00)) (* y y00 z00))))
 (let ((?x129 (- (- (+ (- (+ ?x121 ?x59) ?x91) (* 36 y y00) ?x94) ?x80) (* 3 x z z00))))
 (let ((?x138 (+ (- (+ ?x129 (* 2 y y z00)) (* 36 y00 y00)) ?x90 ?x135 (* 18 x00 y) (* 3 x00 z00 z00) ?x64)))
 (let ((?x145 (+ (- (+ (- ?x138 ?x67) (* 18 x y00) ?x71) ?x74) (* y y00 z) (* 3 y00 z00 z00))))
 (let (($x150 (= (- (- ?x145 (* 2 y00 y00 z)) (* 3 y z00 z00)) 0)))
 (let ((?x105 (* y z00 z00)))
 (let ((?x103 (* y z z00)))
 (let ((?x86 (+ (- (- (* (- 1) y00 z z00) ?x80) ?x81) (* 18 x00 z00) (* 12 y y))))
 (let ((?x93 (+ (- ?x86 (* 24 y00 y00)) ?x90 ?x59 ?x91 (* 12 y y00) ?x64)))
 (let ((?x102 (- (+ (- (+ (- (- ?x93 ?x67) ?x94) ?x71) ?x74) ?x99) (* 18 x z00))))
 (let ((?x76 (* z z00 z00)))
 (let ((?x60 (- (+ (- (* (- 6) y z) ?x55) (* 6 z00 z00)) ?x59)))
 (let ((?x70 (- (- (+ ?x60 (* 18 y00 z00) ?x64) ?x67) (* 6 z z00))))
 (let ((?x50 (* z z)))
 (let ((?x46 (* 6 z)))
 (let ((?x51 (+ (- (- (+ (* (- 1) z00 z00) ?x43) (* 12 y)) ?x46) ?x49 ?x50)))
 (let (($x39 (= (- (+ (* (- 1) z) z00 (* 6 n)) (* 6 n00)) 0)))
 (let (($x231 (and $x39 (= ?x51 0) (= (+ (- (+ ?x70 ?x71) ?x74) ?x76) 0) (= (- (+ ?x102 ?x103) ?x105) 0) $x150 (= (- ?x211 ?x212) 0) (or $x229))))
 (rewrite (= $x231 $x990)))))))))))))))))))))))))))))))))))))))))))))))))))))))))))))))))))))))))))))))))))))))))))))))))))))))))
 ))
 (let ((@x233 (asserted $x232)))
 (let ((@x1318 (mp (mp @x233 (quant-intro (proof-bind ?x524) (= $x232 $x436)) $x436) (rewrite (= $x436 $x436)) $x436)))
 (let ((@x1189 (mp (mp @x1318 (quant-intro (proof-bind ?x322) (= $x436 $x300)) $x300) (quant-intro (proof-bind ?x579) (= $x300 $x557)) $x557)))
 (let ((@x915 (mp (mp~ @x1189 (sk (~ $x557 $x315)) $x315) (rewrite (= $x315 $x1041)) $x1041)))
 (let ((@x536 (and-elim @x915 $x820)))
 (let ((@x325 (unit-resolution ((_ th-lemma arith triangle-eq) (or (not $x820) $x740)) @x536 $x740)))
 (let (($x776 (>= ?x953 0)))
 (let ((@x339 (unit-resolution ((_ th-lemma arith triangle-eq) (or (not $x820) $x776)) @x536 $x776)))
 (let (($x1015 (not (<= ?x1042 0))))
 (let (($x767 (>= ?x1042 0)))
 (let ((@x1256 (unit-resolution ((_ th-lemma arith triangle-eq) (or $x1040 $x1015 (not $x767))) (and-elim @x915 $x1061) (or $x1015 (not $x767)))))
 (let ((@x1257 (unit-resolution @x1256 (lemma ((_ th-lemma arith farkas 1 1 1) (hypothesis (not $x767)) @x339 @x325 false) $x767) $x1015)))
 ((_ th-lemma arith farkas 1 1 1) @x1257 @x339 @x325 false))))))))))))))))))))))))))))))))))))))))))))))))))))))))))))))))))))))))))))))))))))))))))))))))))))))))))))))))))))))))))

(:added-eqs                 6
 :arith-assert-diseq        1
 :arith-assert-lower        10
 :arith-assert-upper        9
 :arith-conflicts           2
 :arith-eq-adapter          7
 :arith-num-rows            7
 :arith-pseudo-nonlinear    2
 :arith-tableau-max-columns 97
 :arith-tableau-max-rows    7
 :conflicts                 2
 :decisions                 1
 :del-clause                20
 :max-memory                3.88
 :memory                    3.26
 :mk-bool-var               27
 :mk-clause                 22
 :num-allocs                1301631
 :num-checks                1
 :propagations              14
 :rlimit-count              7462
 :time                      0.01
 :total-time                0.03)
